86
164
238
171
570
279
168
187
191
218
250
233
650
108
235
220
149
112
271
433
195
282
178
87
121
93
131
278
164
89
180
179
189
104
126
295
291
176
285
591
191
95
240
275
251
311
174
153
185
162
448
187
119
134
263
137
192
225
180
237
119
183
214
174
159
197
216
153
120
197
134
163
148
255
175
190
212
357
270
272
226
161
260
113
269
141
108
237
190
243
190
474
357
105
116
118
273
324
112
230
